(declare-fun temp10707_2 () (_ BitVec 64))
(declare-fun temp10707_1 () (_ BitVec 64))
(declare-fun temp10707_3 () (_ BitVec 64))
(declare-fun var68976 () (_ BitVec 64))
(declare-fun temp10707_4 () (_ BitVec 64))
(declare-fun temp10707_5 () (_ BitVec 64))
(declare-fun temp10707_6 () (_ BitVec 64))
(declare-fun ARGNAME_w_ih_NAMEEND_DIMSIZE
             ()
             (Array (_ BitVec 64) (_ BitVec 64)))
(declare-fun temp10707_7 () (_ BitVec 64))
(declare-fun temp10707_8 () (_ BitVec 64))
(declare-fun temp10707_9 () (_ BitVec 64))
(declare-fun temp10707_10 () (_ BitVec 64))
(declare-fun temp10707_11 () (_ BitVec 64))
(declare-fun temp10707_12 () (_ BitVec 64))
(declare-fun temp10707_13 () (_ BitVec 64))
(declare-fun temp10707_14 () (_ BitVec 64))
(declare-fun temp10707_15 () (_ BitVec 64))
(declare-fun temp10707_16 () (_ BitVec 64))
(declare-fun temp10707_17 () (_ BitVec 64))
(declare-fun temp10707_18 () (_ BitVec 64))
(declare-fun temp10707_19 () (_ BitVec 64))
(declare-fun temp10707_20 () (_ BitVec 64))
(declare-fun temp10707_21 () (_ BitVec 64))
(declare-fun temp10707_22 () (_ BitVec 64))
(declare-fun temp10707_23 () (_ BitVec 64))
(declare-fun temp10707_24 () (_ BitVec 64))
(declare-fun var77378 () (_ BitVec 64))
(declare-fun temp10707_25 () (_ BitVec 64))
(declare-fun temp10707_26 () (_ BitVec 64))
(declare-fun temp10707_27 () (_ BitVec 64))
(declare-fun ARGNAME_input_NAMEEND_DIMSIZE
             ()
             (Array (_ BitVec 64) (_ BitVec 64)))
(declare-fun temp10707_28 () (_ BitVec 64))
(declare-fun temp10707_29 () (_ BitVec 64))
(declare-fun temp10707_30 () (_ BitVec 64))
(declare-fun temp10707_31 () (_ BitVec 64))
(declare-fun temp10707_32 () (_ BitVec 64))
(declare-fun temp10707_33 () (_ BitVec 64))
(declare-fun temp10707_34 () (_ BitVec 64))
(declare-fun temp10707_35 () (_ BitVec 64))
(declare-fun temp10707_36 () (_ BitVec 64))
(declare-fun temp10707_37 () (_ BitVec 64))
(declare-fun temp10707_38 () (_ BitVec 64))
(declare-fun temp10707_39 () (_ BitVec 64))
(declare-fun temp10707_40 () (_ BitVec 64))
(declare-fun temp10707_41 () (_ BitVec 64))
(declare-fun temp10707_42 () (_ BitVec 64))
(declare-fun temp10707_43 () (_ BitVec 64))
(declare-fun temp10707_44 () (_ BitVec 64))
(declare-fun temp10707_45 () (_ BitVec 64))
(declare-fun temp10707_46 () (_ BitVec 64))
(declare-fun temp10707_47 () (_ BitVec 64))
(declare-fun var600864 () (_ BitVec 64))
(declare-fun k!0 () Bool)
(declare-fun ARGNAME_w_ih_NAMEEND_DIM () (_ BitVec 64))
(declare-fun k!1 () (_ BitVec 64))
(declare-fun k!2 () (_ BitVec 64))
(declare-fun k!3 () Bool)
(declare-fun k!4 () Bool)
(declare-fun ARGNAME_input_NAMEEND_DIM () (_ BitVec 64))
(declare-fun temp10707_48 () (_ BitVec 64))
(declare-fun temp10707_49 () (_ BitVec 64))
(declare-fun temp10707_50 () (_ BitVec 64))
(declare-fun ARGNAME_w_hh_NAMEEND_DIMSIZE
             ()
             (Array (_ BitVec 64) (_ BitVec 64)))
(declare-fun temp10707_51 () (_ BitVec 64))
(declare-fun temp10707_52 () (_ BitVec 64))
(declare-fun temp10707_53 () (_ BitVec 64))
(declare-fun temp10707_54 () (_ BitVec 64))
(declare-fun temp10707_55 () (_ BitVec 64))
(declare-fun temp10707_56 () (_ BitVec 64))
(declare-fun temp10707_57 () (_ BitVec 64))
(declare-fun temp10707_58 () (_ BitVec 64))
(declare-fun temp10707_59 () (_ BitVec 64))
(declare-fun temp10707_60 () (_ BitVec 64))
(declare-fun temp10707_61 () (_ BitVec 64))
(declare-fun temp10707_62 () (_ BitVec 64))
(declare-fun temp10707_63 () (_ BitVec 64))
(declare-fun temp10707_64 () (_ BitVec 64))
(declare-fun temp10707_65 () (_ BitVec 64))
(declare-fun temp10707_66 () (_ BitVec 64))
(declare-fun temp10707_67 () (_ BitVec 64))
(declare-fun ARGNAME_w_hh_NAMEEND_DIM () (_ BitVec 64))
(declare-fun temp10707_68 () (_ BitVec 64))
(declare-fun temp10707_69 () (_ BitVec 64))
(declare-fun var77383 () (_ BitVec 64))
(declare-fun temp10707_70 () (_ BitVec 64))
(declare-fun temp10707_71 () (_ BitVec 64))
(declare-fun temp10707_72 () (_ BitVec 64))
(declare-fun temp10707_73 () (_ BitVec 64))
(declare-fun temp10707_74 () (_ BitVec 64))
(declare-fun ARGNAME_hx_NAMEEND_DIMSIZE () (Array (_ BitVec 64) (_ BitVec 64)))
(declare-fun temp10707_75 () (_ BitVec 64))
(declare-fun temp10707_76 () (_ BitVec 64))
(declare-fun temp10707_77 () (_ BitVec 64))
(declare-fun temp10707_78 () (_ BitVec 64))
(declare-fun temp10707_79 () (_ BitVec 64))
(declare-fun temp10707_80 () (_ BitVec 64))
(declare-fun temp10707_81 () (_ BitVec 64))
(declare-fun temp10707_82 () (_ BitVec 64))
(declare-fun temp10707_83 () (_ BitVec 64))
(declare-fun temp10707_84 () (_ BitVec 64))
(declare-fun temp10707_85 () (_ BitVec 64))
(declare-fun temp10707_86 () (_ BitVec 64))
(declare-fun temp10707_87 () (_ BitVec 64))
(declare-fun temp10707_88 () (_ BitVec 64))
(declare-fun temp10707_89 () (_ BitVec 64))
(declare-fun temp10707_90 () (_ BitVec 64))
(declare-fun temp10707_91 () (_ BitVec 64))
(declare-fun temp10707_92 () (_ BitVec 64))
(declare-fun temp10707_93 () (_ BitVec 64))
(declare-fun ARGNAME_hx_NAMEEND_DIM () (_ BitVec 64))
(declare-fun var863176 () (_ BitVec 64))
(declare-fun temp10707_94 () (_ BitVec 64))
(declare-fun temp10707_95 () (_ BitVec 64))
(declare-fun temp10707_96 () (_ BitVec 64))
(declare-fun temp10707_97 () (_ BitVec 64))
(declare-fun temp10707_98 () (_ BitVec 64))
(declare-fun var863245 () (_ BitVec 64))
(declare-fun temp10707_99 () (_ BitVec 64))
(declare-fun temp10707_101 () (_ BitVec 64))
(declare-fun temp10707_100 () (_ BitVec 64))
(declare-fun temp10707_102 () (_ BitVec 64))
(declare-fun var1711544 () (_ BitVec 64))
(declare-fun temp10707_103 () (_ BitVec 64))
(assert (= temp10707_2 #x0000000000000000))
(assert (= temp10707_1 temp10707_2))
(assert (= temp10707_3 #x0000000000000001))
(assert (= var68976 temp10707_3))
(assert (= temp10707_4 #x0000000000000000))
(assert (= temp10707_5 temp10707_4))
(assert (= temp10707_6 (select ARGNAME_w_ih_NAMEEND_DIMSIZE temp10707_5)))
(assert (= temp10707_7 #x0000000000000001))
(assert (= temp10707_8 temp10707_7))
(assert (= temp10707_9 (select ARGNAME_w_ih_NAMEEND_DIMSIZE temp10707_8)))
(assert (= temp10707_10 #x0000000000000002))
(assert (= temp10707_11 temp10707_10))
(assert (= temp10707_12 (select ARGNAME_w_ih_NAMEEND_DIMSIZE temp10707_11)))
(assert (= temp10707_13 #x0000000000000003))
(assert (= temp10707_14 temp10707_13))
(assert (= temp10707_15 (select ARGNAME_w_ih_NAMEEND_DIMSIZE temp10707_14)))
(assert (= temp10707_16 #x0000000000000004))
(assert (= temp10707_17 temp10707_16))
(assert (= temp10707_18 (select ARGNAME_w_ih_NAMEEND_DIMSIZE temp10707_17)))
(assert (= temp10707_19 #x0000000000000005))
(assert (= temp10707_20 temp10707_19))
(assert (= temp10707_21 (select ARGNAME_w_ih_NAMEEND_DIMSIZE temp10707_20)))
(assert (= temp10707_22 #x0000000000000000))
(assert (= temp10707_23
   (ite (bvslt var68976 temp10707_22)
        (bvadd ARGNAME_w_ih_NAMEEND_DIM var68976)
        var68976)))
(assert (= temp10707_24 (select ARGNAME_w_ih_NAMEEND_DIMSIZE temp10707_23)))
(assert (= var77378 temp10707_24))
(assert (bvslt (ite (bvslt var68976 temp10707_22)
            (bvadd ARGNAME_w_ih_NAMEEND_DIM var68976)
            var68976)
       ARGNAME_w_ih_NAMEEND_DIM))
(assert (= temp10707_25 #x0000000000000000))
(assert (= temp10707_26 temp10707_25))
(assert (= temp10707_27 (select ARGNAME_input_NAMEEND_DIMSIZE temp10707_26)))
(assert (= temp10707_28 #x0000000000000001))
(assert (= temp10707_29 temp10707_28))
(assert (= temp10707_30 (select ARGNAME_input_NAMEEND_DIMSIZE temp10707_29)))
(assert (= temp10707_31 #x0000000000000002))
(assert (= temp10707_32 temp10707_31))
(assert (= temp10707_33 (select ARGNAME_input_NAMEEND_DIMSIZE temp10707_32)))
(assert (= temp10707_34 #x0000000000000003))
(assert (= temp10707_35 temp10707_34))
(assert (= temp10707_36 (select ARGNAME_input_NAMEEND_DIMSIZE temp10707_35)))
(assert (= temp10707_37 #x0000000000000004))
(assert (= temp10707_38 temp10707_37))
(assert (= temp10707_39 (select ARGNAME_input_NAMEEND_DIMSIZE temp10707_38)))
(assert (= temp10707_40 #x0000000000000005))
(assert (= temp10707_41 temp10707_40))
(assert (= temp10707_42 (select ARGNAME_input_NAMEEND_DIMSIZE temp10707_41)))
(assert (= temp10707_43 #x0000000000000001))
(assert (= temp10707_44 temp10707_43))
(assert (= temp10707_45 (select ARGNAME_input_NAMEEND_DIMSIZE temp10707_44)))
(assert (bvsgt ARGNAME_input_NAMEEND_DIM temp10707_43))
(assert (bvsge temp10707_43 (bvneg ARGNAME_input_NAMEEND_DIM)))
(assert (= temp10707_46 var77378))
(assert (= var600864
   (ite (= temp10707_45 temp10707_46) #x0000000000000001 #x0000000000000000)))
(assert (= temp10707_47 #x0000000000000001))
(assert (= var600864 temp10707_47))
(assert (= temp10707_48 #x0000000000000001))
(assert (= var68976 temp10707_48))
(assert (= temp10707_49 #x0000000000000000))
(assert (= temp10707_50 temp10707_49))
(assert (= temp10707_51 (select ARGNAME_w_hh_NAMEEND_DIMSIZE temp10707_50)))
(assert (= temp10707_52 #x0000000000000001))
(assert (= temp10707_53 temp10707_52))
(assert (= temp10707_54 (select ARGNAME_w_hh_NAMEEND_DIMSIZE temp10707_53)))
(assert (= temp10707_55 #x0000000000000002))
(assert (= temp10707_56 temp10707_55))
(assert (= temp10707_57 (select ARGNAME_w_hh_NAMEEND_DIMSIZE temp10707_56)))
(assert (= temp10707_58 #x0000000000000003))
(assert (= temp10707_59 temp10707_58))
(assert (= temp10707_60 (select ARGNAME_w_hh_NAMEEND_DIMSIZE temp10707_59)))
(assert (= temp10707_61 #x0000000000000004))
(assert (= temp10707_62 temp10707_61))
(assert (= temp10707_63 (select ARGNAME_w_hh_NAMEEND_DIMSIZE temp10707_62)))
(assert (= temp10707_64 #x0000000000000005))
(assert (= temp10707_65 temp10707_64))
(assert (= temp10707_66 (select ARGNAME_w_hh_NAMEEND_DIMSIZE temp10707_65)))
(assert (= temp10707_67 #x0000000000000000))
(assert (= temp10707_68
   (ite (bvslt var68976 temp10707_67)
        (bvadd ARGNAME_w_hh_NAMEEND_DIM var68976)
        var68976)))
(assert (= temp10707_69 (select ARGNAME_w_hh_NAMEEND_DIMSIZE temp10707_68)))
(assert (= var77383 temp10707_69))
(assert (bvslt (ite (bvslt var68976 temp10707_67)
            (bvadd ARGNAME_w_hh_NAMEEND_DIM var68976)
            var68976)
       ARGNAME_w_hh_NAMEEND_DIM))
(assert (= temp10707_70 #x0000000000000000))
(assert (= temp10707_71 temp10707_70))
(assert (= temp10707_72 (select ARGNAME_input_NAMEEND_DIMSIZE temp10707_71)))
(assert (bvsgt ARGNAME_input_NAMEEND_DIM temp10707_70))
(assert (bvsge temp10707_70 (bvneg ARGNAME_input_NAMEEND_DIM)))
(assert (= temp10707_73 #x0000000000000000))
(assert (= temp10707_74 temp10707_73))
(assert (= temp10707_75 (select ARGNAME_hx_NAMEEND_DIMSIZE temp10707_74)))
(assert (= temp10707_76 #x0000000000000001))
(assert (= temp10707_77 temp10707_76))
(assert (= temp10707_78 (select ARGNAME_hx_NAMEEND_DIMSIZE temp10707_77)))
(assert (= temp10707_79 #x0000000000000002))
(assert (= temp10707_80 temp10707_79))
(assert (= temp10707_81 (select ARGNAME_hx_NAMEEND_DIMSIZE temp10707_80)))
(assert (= temp10707_82 #x0000000000000003))
(assert (= temp10707_83 temp10707_82))
(assert (= temp10707_84 (select ARGNAME_hx_NAMEEND_DIMSIZE temp10707_83)))
(assert (= temp10707_85 #x0000000000000004))
(assert (= temp10707_86 temp10707_85))
(assert (= temp10707_87 (select ARGNAME_hx_NAMEEND_DIMSIZE temp10707_86)))
(assert (= temp10707_88 #x0000000000000005))
(assert (= temp10707_89 temp10707_88))
(assert (= temp10707_90 (select ARGNAME_hx_NAMEEND_DIMSIZE temp10707_89)))
(assert (= temp10707_91 #x0000000000000000))
(assert (= temp10707_92 temp10707_91))
(assert (= temp10707_93 (select ARGNAME_hx_NAMEEND_DIMSIZE temp10707_92)))
(assert (bvsgt ARGNAME_hx_NAMEEND_DIM temp10707_91))
(assert (bvsge temp10707_91 (bvneg ARGNAME_hx_NAMEEND_DIM)))
(assert (= var863176
   (ite (= temp10707_72 temp10707_93) #x0000000000000001 #x0000000000000000)))
(assert (= temp10707_94 #x0000000000000001))
(assert (= var863176 temp10707_94))
(assert (= temp10707_95 #x0000000000000001))
(assert (= temp10707_96 temp10707_95))
(assert (= temp10707_97 (select ARGNAME_hx_NAMEEND_DIMSIZE temp10707_96)))
(assert (bvsgt ARGNAME_hx_NAMEEND_DIM temp10707_95))
(assert (bvsge temp10707_95 (bvneg ARGNAME_hx_NAMEEND_DIM)))
(assert (= temp10707_98 var77383))
(assert (= var863245
   (ite (= temp10707_97 temp10707_98) #x0000000000000001 #x0000000000000000)))
(assert (= temp10707_99 #x0000000000000001))
(assert (= var863245 temp10707_99))
(assert (= temp10707_101 #x0000000000000000))
(assert (= temp10707_100 temp10707_101))
(assert (= temp10707_102 #x0000000000000000))
(assert (= var1711544 temp10707_102))
(assert (= temp10707_103 #x0000000000000000))
(assert (= var1711544 temp10707_103))
(model-add temp10707_2 () (_ BitVec 64) #x0000000000000000)
(model-add temp10707_1 () (_ BitVec 64) #x0000000000000000)
(model-add temp10707_3 () (_ BitVec 64) #x0000000000000001)
(model-add var68976 () (_ BitVec 64) #x0000000000000001)
(model-add temp10707_4 () (_ BitVec 64) #x0000000000000000)
(model-add temp10707_5 () (_ BitVec 64) #x0000000000000000)
(model-add temp10707_6
           ()
           (_ BitVec 64)
           (select ARGNAME_w_ih_NAMEEND_DIMSIZE #x0000000000000000))
(model-add temp10707_7 () (_ BitVec 64) #x0000000000000001)
(model-add temp10707_8 () (_ BitVec 64) #x0000000000000001)
(model-add temp10707_9
           ()
           (_ BitVec 64)
           (select ARGNAME_w_ih_NAMEEND_DIMSIZE #x0000000000000001))
(model-add temp10707_10 () (_ BitVec 64) #x0000000000000002)
(model-add temp10707_11 () (_ BitVec 64) #x0000000000000002)
(model-add temp10707_12
           ()
           (_ BitVec 64)
           (select ARGNAME_w_ih_NAMEEND_DIMSIZE #x0000000000000002))
(model-add temp10707_13 () (_ BitVec 64) #x0000000000000003)
(model-add temp10707_14 () (_ BitVec 64) #x0000000000000003)
(model-add temp10707_15
           ()
           (_ BitVec 64)
           (select ARGNAME_w_ih_NAMEEND_DIMSIZE #x0000000000000003))
(model-add temp10707_16 () (_ BitVec 64) #x0000000000000004)
(model-add temp10707_17 () (_ BitVec 64) #x0000000000000004)
(model-add temp10707_18
           ()
           (_ BitVec 64)
           (select ARGNAME_w_ih_NAMEEND_DIMSIZE #x0000000000000004))
(model-add temp10707_19 () (_ BitVec 64) #x0000000000000005)
(model-add temp10707_20 () (_ BitVec 64) #x0000000000000005)
(model-add temp10707_21
           ()
           (_ BitVec 64)
           (select ARGNAME_w_ih_NAMEEND_DIMSIZE #x0000000000000005))
(model-add temp10707_22 () (_ BitVec 64) #x0000000000000000)
(model-add temp10707_23 () (_ BitVec 64) #x0000000000000001)
(model-add temp10707_24
           ()
           (_ BitVec 64)
           (select ARGNAME_w_ih_NAMEEND_DIMSIZE #x0000000000000001))
(model-add var77378
           ()
           (_ BitVec 64)
           (select ARGNAME_w_ih_NAMEEND_DIMSIZE #x0000000000000001))
(model-add temp10707_25 () (_ BitVec 64) #x0000000000000000)
(model-add temp10707_26 () (_ BitVec 64) #x0000000000000000)
(model-add temp10707_27
           ()
           (_ BitVec 64)
           (select ARGNAME_input_NAMEEND_DIMSIZE #x0000000000000000))
(model-add temp10707_28 () (_ BitVec 64) #x0000000000000001)
(model-add temp10707_29 () (_ BitVec 64) #x0000000000000001)
(model-add temp10707_30
           ()
           (_ BitVec 64)
           (select ARGNAME_input_NAMEEND_DIMSIZE #x0000000000000001))
(model-add temp10707_31 () (_ BitVec 64) #x0000000000000002)
(model-add temp10707_32 () (_ BitVec 64) #x0000000000000002)
(model-add temp10707_33
           ()
           (_ BitVec 64)
           (select ARGNAME_input_NAMEEND_DIMSIZE #x0000000000000002))
(model-add temp10707_34 () (_ BitVec 64) #x0000000000000003)
(model-add temp10707_35 () (_ BitVec 64) #x0000000000000003)
(model-add temp10707_36
           ()
           (_ BitVec 64)
           (select ARGNAME_input_NAMEEND_DIMSIZE #x0000000000000003))
(model-add temp10707_37 () (_ BitVec 64) #x0000000000000004)
(model-add temp10707_38 () (_ BitVec 64) #x0000000000000004)
(model-add temp10707_39
           ()
           (_ BitVec 64)
           (select ARGNAME_input_NAMEEND_DIMSIZE #x0000000000000004))
(model-add temp10707_40 () (_ BitVec 64) #x0000000000000005)
(model-add temp10707_41 () (_ BitVec 64) #x0000000000000005)
(model-add temp10707_42
           ()
           (_ BitVec 64)
           (select ARGNAME_input_NAMEEND_DIMSIZE #x0000000000000005))
(model-add temp10707_43 () (_ BitVec 64) #x0000000000000001)
(model-add temp10707_44 () (_ BitVec 64) #x0000000000000001)
(model-add temp10707_45
           ()
           (_ BitVec 64)
           (select ARGNAME_input_NAMEEND_DIMSIZE #x0000000000000001))
(model-add temp10707_46
           ()
           (_ BitVec 64)
           (select ARGNAME_w_ih_NAMEEND_DIMSIZE #x0000000000000001))
(model-add temp10707_47 () (_ BitVec 64) #x0000000000000001)
(model-add var600864 () (_ BitVec 64) #x0000000000000001)
(model-del k!0)
(model-add ARGNAME_w_ih_NAMEEND_DIM
           ()
           (_ BitVec 64)
           (ite (or k!0 (= #x0000000000000001 #x7fffffffffffffff))
                #x0000000000000001
                (bvadd #x0000000000000001 #x0000000000000001)))
(model-del k!1)
(model-add ARGNAME_input_NAMEEND_DIMSIZE
           ()
           (Array (_ BitVec 64) (_ BitVec 64))
           ((as const (Array (_ BitVec 64) (_ BitVec 64))) k!1))
(model-del k!2)
(model-add ARGNAME_w_ih_NAMEEND_DIMSIZE
           ()
           (Array (_ BitVec 64) (_ BitVec 64))
           ((as const (Array (_ BitVec 64) (_ BitVec 64))) k!2))
(model-del k!3)
(model-add k!0 () Bool (not k!3))
(model-del k!4)
(model-add k!1 () (_ BitVec 64) (ite k!4 k!2 (bvnot k!2)))





